{'code': [18, 4, 13, 6, 9, 1, 9, 18, 12, 15, 4, 3, 18, 0, 15, 16, 17, 6, 3, 4, 9, 10, 15, 5, 14, 12,
 16, 18, 6, 8, 17, 17, 9, 19, 9, 13, 7, 1, 16, 5, 11, 19, 16, 1, 13, 12, 6, 9, 5, 14, 7, 5, 9, 10, 1
0, 4, 0, 13, 18, 18, 0, 19, 1, 10, 7, 10, 2, 19, 1, 14, 14, 13, 19, 8, 18, 18, 18, 0, 0, 13, 18, 16,
 17, 2, 7, 12, 4, 1, 2, 0, 13, 14, 2, 3, 19, 6, 0, 2, 5, 14, 3, 11, 9, 11, 14, 1, 3, 1, 15, 11, 2, 4
, 2, 2, 18, 18, 4, 15, 19, 7, 7, 15, 6, 14, 10, 8, 8, 17, 11, 10, 9, 6, 15, 17, 19, 10, 12, 4, 7, 14
, 15, 1, 8, 11, 4, 13, 7, 15, 8, 9, 0, 5, 7, 0, 3, 18, 1, 8, 16, 14, 0, 3, 6, 16, 17, 11, 14, 14, 17
, 9, 3, 1, 7, 5, 6, 15, 5, 6, 8, 11, 12, 6, 16, 15, 12, 6, 12, 2, 4, 13, 16, 9, 15, 15, 7, 12, 4, 19
, 16, 5, 5, 17, 16, 1, 17, 11, 3, 12, 19, 7, 4, 17, 19, 10, 19, 6, 11, 12, 4, 3, 2, 2, 4, 5, 1, 7, 1
6, 15, 19, 16, 8, 8, 11, 0, 3, 0, 10, 6, 13, 8], 'route': None, 'mac': [[0, 7, 7, 0, 1, 8, 6, 0, 8, 
3, 1, 3], [7, 4, 1, 4, 1, 0, 6, 0, 2, 0, 2, 3, 4], [6, 4, 9, 0, 8, 3, 0, 0, 4, 2, 2], [0, 0, 8, 7, 3
, 7, 6, 4, 2, 6, 0], [7, 3, 4, 4, 6, 1, 6, 7, 4, 9, 3, 4, 5, 4], [9, 9, 0, 2, 4, 8, 7, 7, 1, 6, 8], 
[7, 7, 7, 3, 0, 9, 1, 4, 8, 8, 5, 6, 2, 9], [0, 4, 4, 6, 8, 1, 6, 1, 5, 5, 1, 3, 3], [7, 1, 0, 3, 4,
 6, 1, 8, 8, 1, 7], [3, 0, 2, 9, 8, 3, 4, 2, 1, 2, 5, 0], [8, 4, 1, 3, 0, 4, 6, 2, 0, 6], [4, 8, 3, 
8, 6, 3, 1, 7, 3, 4, 1], [1, 2, 8, 4, 1, 6, 1, 7, 0, 0, 6], [4, 0, 9, 1, 6, 8, 3, 6, 6, 2], [0, 3, 1
, 5, 4, 8, 1, 4, 3, 2, 1, 6], [7, 0, 2, 8, 7, 1, 2, 1, 0, 0, 3, 4, 0, 9], [1, 8, 6, 7, 9, 4, 0, 1, 0
, 9, 3, 2, 0], [5, 6, 4, 9, 2, 2, 8, 1, 4, 7, 0], [2, 1, 6, 1, 2, 3, 6, 9, 9, 4, 1, 6, 4], [3, 1, 6,
 2, 4, 0, 4, 0, 7, 8, 1, 2, 1]], 'wok': None}
